29287
0 0 1 0 1 0 1 0 0 0 1 0 0 1 1 0 0 1 1 0 0 0 0 1 1 1 0 0 1 1 
18 4 2 24 23 6 2 17 18 28 4 28 13 13 28 18 13 10 24 17 18 24 10 24 10 18 24 14 29 2 4 4 4 24 18 6 14 13 24 2 18 14 6 29 13 4 13 2 14 14 24 24 17 24 10 6 25 14 18 25 29 2 18 10 13 6 23 14 28 25 18 6 4 14 23 23 10 10 10 24 10 17 4 25 29 10 6 23 24 25 28 6 25 25 2 13 24 6 10 28 14 2 25 18 4 17 29 24 18 13 4 29 18 6 25 13 28 25 17 13 14 18 14 4 4 24 2 28 4 17 28 24 25 10 23 14 13 13 28 14 6 18 6 25 25 23 24 2 17 25 24 14 23 17 13 28 23 2 13 13 13 17 10 17 23 28 23 29 13 24 23 10 17 14 29 2 17 10 29 10 23 2 2 6 25 14 28 23 17 2 2 24 6 4 25 6 18 23 10 14 
